minizinc/sudoku_problems2/sudoku_p2.dzn
%
% sudoku_p2.dzn
% See http://www.hakank.org/minizinc/sudoku_gcc.mzn
% 
% This problem is problem 2 from
% Gecode's sudoku.cpp
% http://www.gecode.org/gecode-doc-latest/sudoku_8cpp-source.html
% 
x = array2d(1..n, 1..n, [   
% 2
  _,  _,  _,  _,  1,  _,  _,  _,  _,
  3,  _,  1,  4,  _,  _,  8,  6,  _,
  9,  _,  _,  5,  _,  _,  2,  _,  _,
  7,  _,  _,  1,  6,  _,  _,  _,  _,
  _,  2,  _,  8,  _,  5,  _,  1,  _,
  _,  _,  _,  _,  9,  7,  _,  _,  4,
  _,  _,  3,  _,  _,  4,  _,  _,  6,
  _,  4,  8,  _,  _,  6,  9,  _,  7,
  _,  _,  _,  _,  8,  _,  _,  _,  _
]);

n = 9;


